Normalized Data/p03_10_normalized_split0.vrp
NAME:p03_10_NORMALIZED_split
BEST_KNOWN: 0
COMMENT: 0
DIMENSION: 414
CAPACITY: 100
EDGE_WEIGHT_FORMAT: FUNCTION
EDGE_WEIGHT_TYPE: EXACT_2D
NODE_COORD_SECTION
1 0.00000 0.00000
2 -30 -10
3 -30 -10
4 -30 -10
5 -30 -10
6 -30 -10
7 -30 -10
8 -30 -10
9 -6 -46
10 -6 -46
11 -6 -46
12 -6 -46
13 -6 -46
14 -6 -46
15 -32 -22
16 -32 -22
17 -32 -22
18 -32 -22
19 -32 -22
20 -32 -22
21 50 -39
22 50 -39
23 50 -39
24 50 -39
25 50 -39
26 50 -39
27 7 -18
28 7 -18
29 7 -18
30 7 -18
31 -15 -5
32 -15 -5
33 -15 -5
34 27 -30
35 27 -30
36 27 -30
37 27 -30
38 27 -30
39 27 -30
40 -6 -39
41 -6 -39
42 -6 -39
43 -6 -39
44 -6 -39
45 1 39
46 1 39
47 1 39
48 1 39
49 42 -47
50 42 -47
51 42 -47
52 42 -47
53 42 -47
54 -44 34
55 -44 34
56 -44 34
57 -44 34
58 -44 34
59 30 -28
60 30 -28
61 30 -28
62 30 -28
63 30 -28
64 45 -9
65 45 -9
66 45 -9
67 45 -9
68 45 -9
69 -38 -25
70 -38 -25
71 -38 -25
72 13 -3
73 13 -3
74 -28 23
75 -28 23
76 -28 23
77 -28 23
78 -28 23
79 -7 21
80 -7 21
81 -7 21
82 -7 21
83 -7 21
84 -25 10
85 -25 10
86 -25 10
87 -25 10
88 -25 10
89 -25 10
90 -42 -10
91 -42 -10
92 -42 -10
93 28 -18
94 28 -18
95 28 -18
96 28 -18
97 12 -44
98 12 -44
99 -41 6
100 -41 6
101 -41 6
102 -2 45
103 -2 45
104 -2 45
105 13 44
106 13 44
107 13 44
108 13 44
109 13 44
110 -19 -18
111 -19 -18
112 -19 -18
113 -19 -18
114 -42 -42
115 -42 -42
116 -42 -42
117 -42 -42
118 26 6
119 26 6
120 -37 15
121 -37 15
122 42 21
123 42 21
124 -24 9
125 -24 9
126 21 -47
127 21 -47
128 19 -37
129 19 -37
130 19 -37
131 19 -37
132 19 -37
133 -19 -38
134 -19 -38
135 -19 -38
136 -19 -38
137 50 -41
138 50 -41
139 -13 10
140 -13 10
141 -13 10
142 -22 -44
143 -22 -44
144 -22 -44
145 -22 -44
146 -42 19
147 -42 19
148 -42 19
149 -11 -8
150 -11 -8
151 -11 -8
152 -11 -8
153 -11 -8
154 -11 -8
155 -31 45
156 -31 45
157 -31 45
158 -31 45
159 11 34
160 11 34
161 11 34
162 11 34
163 11 34
164 11 34
165 11 34
166 46 30
167 46 30
168 46 30
169 46 30
170 -35 -27
171 -35 -27
172 -35 -27
173 -35 -27
174 -35 -27
175 -35 -27
176 -48 3
177 -48 3
178 -48 3
179 43 -31
180 43 -31
181 37 38
182 37 38
183 15 17
184 15 17
185 15 17
186 15 17
187 -36 24
188 -36 24
189 -14 -22
190 -14 -22
191 -14 -22
192 -14 -22
193 -14 -22
194 23 -9
195 23 -9
196 23 -9
197 23 -9
198 23 -9
199 23 -9
200 -34 46
201 -34 46
202 -34 46
203 -34 46
204 27 35
205 27 35
206 38 -6
207 38 -6
208 38 -6
209 -23 -48
210 -23 -48
211 32 45
212 32 45
213 32 45
214 7 43
215 7 43
216 7 43
217 12 -6
218 12 -6
219 12 -6
220 17 8
221 17 8
222 17 8
223 17 8
224 -47 8
225 -47 8
226 -47 8
227 -47 8
228 -36 -48
229 -36 -48
230 -36 -48
231 -36 -48
232 37 49
233 37 49
234 37 49
235 37 49
236 25 -42
237 25 -42
238 -46 6
239 -46 6
240 -46 6
241 -46 6
242 -46 6
243 36 34
244 36 34
245 36 34
246 36 34
247 27 -7
248 27 -7
249 27 -7
250 -39 -5
251 -39 -5
252 -39 -5
253 -39 -5
254 -39 -5
255 -39 -5
256 35 8
257 35 8
258 35 8
259 35 8
260 35 8
261 14 34
262 14 34
263 1 25
264 1 25
265 1 25
266 1 25
267 1 25
268 1 25
269 -38 -5
270 -38 -5
271 -38 -5
272 -38 -5
273 -38 -5
274 -4 38
275 -4 38
276 -4 38
277 -4 38
278 -4 38
279 -1 -10
280 -1 -10
281 -1 -10
282 -1 -10
283 -1 -10
284 -1 -10
285 11 43
286 11 43
287 11 43
288 37 -48
289 37 -48
290 37 -48
291 12 -47
292 12 -47
293 -35 18
294 -35 18
295 -35 18
296 -35 18
297 46 -40
298 46 -40
299 46 -40
300 46 -40
301 46 -40
302 46 -40
303 26 -18
304 26 -18
305 26 -18
306 26 -18
307 49 13
308 49 13
309 49 13
310 49 13
311 49 13
312 -37 -36
313 -37 -36
314 -37 -36
315 -37 -36
316 -37 -36
317 -37 -36
318 -37 -36
319 39 -50
320 39 -50
321 39 -50
322 39 -50
323 39 -50
324 39 -50
325 5 -20
326 5 -20
327 5 -20
328 48 50
329 48 50
330 48 50
331 48 50
332 0 21
333 0 21
334 0 21
335 0 21
336 0 21
337 0 21
338 30 8
339 30 8
340 30 8
341 30 8
342 30 8
343 30 8
344 -34 -11
345 -34 -11
346 -34 -11
347 -34 -11
348 -34 -11
349 -34 -11
350 -34 -11
351 12 36
352 12 36
353 12 36
354 12 36
355 12 36
356 12 36
357 12 36
358 -14 19
359 -14 19
360 -14 19
361 -14 19
362 -14 19
363 4 42
364 4 42
365 4 42
366 -41 -29
367 -41 -29
368 -41 -29
369 -41 -29
370 -41 -29
371 -11 34
372 -11 34
373 -11 34
374 -11 34
375 -44 -11
376 -44 -11
377 -44 -11
378 -45 -31
379 -45 -31
380 -45 -31
381 -45 -31
382 -45 -31
383 -45 -31
384 49 12
385 49 12
386 -41 -11
387 -41 -11
388 -41 -11
389 19 23
390 19 23
391 19 23
392 19 23
393 19 23
394 19 23
395 -40 -46
396 -40 -46
397 32 -45
398 32 -45
399 32 -45
400 13 8
401 13 8
402 13 8
403 13 8
404 13 8
405 13 8
406 -5 44
407 -5 44
408 -5 44
409 -20 -38
410 -20 -38
411 -20 -38
412 -20 -38
413 -20 -38
414 -20 -38
DEMAND_SECTION
1 0
2 20
3 10
4 5
5 1
6 1
7 1
8 1
9 10
10 5
11 1
12 1
13 1
14 1
15 20
16 10
17 5
18 1
19 1
20 1
21 20
22 5
23 1
24 1
25 1
26 1
27 20
28 5
29 1
30 1
31 20
32 10
33 1
34 20
35 20
36 1
37 1
38 1
39 1
40 20
41 1
42 1
43 1
44 1
45 20
46 1
47 1
48 1
49 20
50 20
51 1
52 1
53 1
54 20
55 1
56 1
57 1
58 1
59 20
60 20
61 5
62 1
63 1
64 20
65 20
66 5
67 1
68 1
69 20
70 10
71 1
72 20
73 1
74 20
75 10
76 1
77 1
78 1
79 10
80 5
81 1
82 1
83 1
84 20
85 10
86 1
87 1
88 1
89 1
90 20
91 10
92 5
93 20
94 20
95 1
96 1
97 20
98 20
99 20
100 20
101 5
102 20
103 20
104 10
105 20
106 10
107 1
108 1
109 1
110 10
111 5
112 1
113 1
114 20
115 1
116 1
117 1
118 20
119 1
120 20
121 10
122 20
123 5
124 10
125 5
126 20
127 10
128 20
129 1
130 1
131 1
132 1
133 20
134 1
135 1
136 1
137 20
138 20
139 20
140 20
141 5
142 20
143 1
144 1
145 1
146 20
147 10
148 1
149 20
150 10
151 5
152 1
153 1
154 1
155 10
156 5
157 1
158 1
159 20
160 20
161 5
162 1
163 1
164 1
165 1
166 20
167 20
168 5
169 1
170 20
171 10
172 1
173 1
174 1
175 1
176 20
177 5
178 1
179 20
180 5
181 20
182 20
183 10
184 1
185 1
186 1
187 20
188 10
189 20
190 1
191 1
192 1
193 1
194 20
195 20
196 1
197 1
198 1
199 1
200 20
201 10
202 1
203 1
204 10
205 5
206 10
207 1
208 1
209 20
210 5
211 20
212 5
213 1
214 20
215 20
216 10
217 20
218 20
219 1
220 20
221 10
222 5
223 1
224 20
225 10
226 1
227 1
228 20
229 5
230 1
231 1
232 20
233 20
234 5
235 1
236 20
237 1
238 20
239 10
240 1
241 1
242 1
243 10
244 5
245 1
246 1
247 10
248 5
249 1
250 20
251 20
252 1
253 1
254 1
255 1
256 10
257 5
258 1
259 1
260 1
261 20
262 5
263 20
264 10
265 5
266 1
267 1
268 1
269 20
270 10
271 5
272 1
273 1
274 20
275 10
276 5
277 1
278 1
279 10
280 5
281 1
282 1
283 1
284 1
285 10
286 5
287 1
288 20
289 5
290 1
291 20
292 1
293 10
294 5
295 1
296 1
297 10
298 5
299 1
300 1
301 1
302 1
303 20
304 20
305 1
306 1
307 20
308 10
309 1
310 1
311 1
312 20
313 10
314 5
315 1
316 1
317 1
318 1
319 10
320 5
321 1
322 1
323 1
324 1
325 20
326 10
327 1
328 20
329 20
330 5
331 1
332 20
333 10
334 5
335 1
336 1
337 1
338 20
339 10
340 5
341 1
342 1
343 1
344 20
345 20
346 5
347 1
348 1
349 1
350 1
351 20
352 20
353 5
354 1
355 1
356 1
357 1
358 20
359 10
360 5
361 1
362 1
363 20
364 20
365 1
366 20
367 20
368 5
369 1
370 1
371 20
372 10
373 1
374 1
375 20
376 1
377 1
378 10
379 5
380 1
381 1
382 1
383 1
384 10
385 5
386 20
387 5
388 1
389 20
390 10
391 5
392 1
393 1
394 1
395 20
396 5
397 20
398 1
399 1
400 20
401 10
402 1
403 1
404 1
405 1
406 20
407 20
408 1
409 20
410 20
411 1
412 1
413 1
414 1
DEPOT_SECTION
1
-1
EOF