Normalized Data/p03_10_normalized_split0.sol
413 -6 3 4 7 2 1 5 349 347 346 343 344 348 345 150 151 152 153 -17 14 18 15 16 19 68 69 70 174 169 170 -28 29 27 26 325 324 326 279 278 281 282 283 280 -32 31 387 386 385 375 376 374 89 91 90 -33 35 37 322 321 318 323 320 319 51 52 48 49 50 296 297 301 -38 34 36 61 59 60 58 62 196 195 193 -42 43 40 39 41 12 9 8 13 11 10 209 208 143 142 141 144 -44 45 284 286 285 107 106 104 105 108 261 260 -72 71 217 216 218 -74 76 77 187 186 145 147 146 83 85 -75 73 53 57 56 55 54 202 201 199 200 155 156 157 154 -81 80 373 371 372 370 273 274 263 262 264 -84 86 87 88 292 295 293 294 120 119 99 98 -96 97 291 290 130 127 128 129 131 -100 224 225 226 223 239 237 238 240 241 177 176 175 -102 101 103 405 406 407 276 277 275 -109 110 312 115 113 116 114 394 395 227 228 230 229 -111 112 313 315 317 311 314 316 382 379 380 381 377 378 365 367 369 368 366 171 172 173 -117 118 259 255 258 256 257 383 384 309 306 310 307 308 341 340 338 342 -124 123 252 249 254 250 253 251 270 272 268 271 269 -125 126 288 287 289 397 398 396 235 236 -134 133 135 132 408 409 411 412 410 413 191 189 192 188 190 -140 139 138 30 149 148 -162 164 161 159 163 160 158 350 356 353 352 354 355 351 -168 166 167 165 121 122 337 339 -178 179 20 21 23 22 25 24 137 136 299 298 300 -185 183 182 184 389 388 219 399 403 402 404 401 400 -198 194 197 67 64 63 65 66 205 207 206 221 220 222 -214 215 213 363 364 362 46 47 265 267 266 335 334 -233 234 231 232 329 327 328 330 243 245 -244 242 181 180 211 212 210 203 204 391 390 393 392 -246 247 248 95 92 93 94 305 304 303 302 -333 331 336 332 78 79 82 358 359 361 360 357 0 





OBJ=
3136.134
BEST_KNOWN=
0.000